10	5	2	0
0	1	11	8	7	1	6	10	5	9	11	2	4	3	[0 0 0 0 0]	[0 0 0 0 0]	[0 0 0 0 0]	[0 0 0 0 0]	[0 0 0 0 0]	[0 0 0 0 0]	[0 0 0 0 0]	[0]	[0 0 0 0 0]	[0 0 0 0 0]	[0 0 0 0 0]
1	5	4	5	6	9	11	[5 1 0 -8 -7 11 18 -8 23 22 13 -1 7 14 1 -2 6 -1 3 -1 15 0 8 13 8]	[-4 2 -3 16 7 2 15 1 11 25 -4 5 2 17 8 7 0 2 0 9 16 11 14 19 10]	[4 2 7 -7 18 23 13 23 3 13 10 -4 8 17 0 -1 4 -1 6 4 26 30 17 23 9]	[9 9 6 3 10]
2	5	4	11	4	10	6	[3 5 2 7 7]	[7 -1 6 9 9 0 14 7 10 8 0 3 6 0 2 14 9 17 20 11 2 5 11 6 -4]	[7 2 4 -2 5 0 -4 12 5 2 6 3 2 4 4 -3 -5 -6 14 20 16 18 0 1 -3]	[2 -2 0 6 2 13 -2 -1 4 -2 -1 0 1 6 0 4 18 15 13 10 -1 19 -5 10 8]
3	5	4	4	11	6	5	[7 6 -2 3 0 -5 3 -4 26 -5 1 0 2 3 0 3 0 2 3 2 0 0 2 0 0]	[3 9 1 1 1]	[2 7 6 7 9 21 -3 13 5 -6 2 2 0 3 3 2 1 0 1 0 2 0 1 3 0]	[1 9 1 1 4 -2 26 6 -4 20 0 1 1 0 0 0 2 3 0 0 2 0 0 2 1]
4	5	4	11	9	7	8	[9 8 8 8 10]	[16 -6 4 12 -2 0 17 -1 15 -3 3 6 10 20 22 22 23 15 -4 20 6 -8 21 10 14]	[0 0 -4 -3 17 0 8 16 16 9 21 9 8 13 8 11 13 8 -6 5 9 -7 9 1 26]	[20 15 5 -8 4 -7 1 7 0 18 11 23 17 0 -4 6 24 8 -7 4 -6 19 30 19 22]
5	5	5	10	11	1	3	7	[11 -3 12 12 -2 -1 17 5 8 25 -3 -1 7 13 -5 2 24 12 3 8 4 8 4 24 10]	[4 10 9 8 10]	[-42 -65 -16 -40 -41 -65 -70 -40 -37 -47 -55 -63 -62 -22 -37 -30 -51 -33 -44 -19 -62 -17 -35 -21 -42]	[-61 -20 -45 -55 -72 -47 -34 -69 -17 -48 -23 -43 -33 -60 -43 -41 -23 -48 -66 -38 -34 -43 -60 -31 -23]	[8 10 9 0 12 9 2 5 30 -3 16 0 -7 7 -6 -2 -2 5 17 6 -3 -8 22 -2 0]
6	5	1	11	[8 2 6 3 10]
7	5	1	11	[2 4 5 3 7]
8	5	1	11	[7 2 1 1 1]
9	5	2	4	11	[-11 -6 -16 -1 0 -19 -17 -14 -13 -2 -19 -14 0 -6 -1 -17 -6 -11 -17 -11 -3 -4 -10 -13 -2]	[4 5 7 6 7]
10	5	4	11	2	1	3	[5 9 7 10 4]	[-75 -22 -76 -86 -28 -58 -59 -76 -57 -30 -22 -19 -39 -63 -29 -54 -55 -32 -46 -59 -45 -51 -67 -82 -41]	[-40 -46 -37 -14 -16 -26 -23 -18 -53 -60 -70 -15 -46 -44 -25 -45 -28 -49 -47 -38 -56 -46 -17 -15 -33]	[-80 -58 -61 -54 -32 -22 -76 -83 -73 -23 -40 -65 -48 -81 -62 -28 -36 -56 -49 -83 -38 -55 -52 -71 -64]
11	1	0
0	1	0	0	0	0	0	0	0	0
1	1	9	2	2	3	4	3	1	4
	2	9	2	2	3	4	3	1	4
	3	6	2	2	3	4	3	1	4
	4	3	2	2	3	4	3	1	4
	5	10	2	2	3	4	3	1	4
2	1	3	5	5	5	4	5	1	4
	2	5	5	5	5	4	5	1	4
	3	2	5	5	5	4	5	1	4
	4	7	5	5	5	4	5	1	4
	5	7	5	5	5	4	5	1	4
3	1	3	5	3	4	3	5	1	5
	2	9	5	3	4	3	5	1	5
	3	1	5	3	4	3	5	1	5
	4	1	5	3	4	3	5	1	5
	5	1	5	3	4	3	5	1	5
4	1	9	3	5	3	4	3	4	2
	2	8	3	5	3	4	3	4	2
	3	8	3	5	3	4	3	4	2
	4	8	3	5	3	4	3	4	2
	5	10	3	5	3	4	3	4	2
5	1	4	2	1	3	3	1	3	4
	2	10	2	1	3	3	1	3	4
	3	9	2	1	3	3	1	3	4
	4	8	2	1	3	3	1	3	4
	5	10	2	1	3	3	1	3	4
6	1	8	4	2	3	3	4	3	2
	2	2	4	2	3	3	4	3	2
	3	6	4	2	3	3	4	3	2
	4	3	4	2	3	3	4	3	2
	5	10	4	2	3	3	4	3	2
7	1	2	5	3	5	4	4	1	5
	2	4	5	3	5	4	4	1	5
	3	5	5	3	5	4	4	1	5
	4	3	5	3	5	4	4	1	5
	5	7	5	3	5	4	4	1	5
8	1	7	1	1	4	4	1	5	5
	2	2	1	1	4	4	1	5	5
	3	1	1	1	4	4	1	5	5
	4	1	1	1	4	4	1	5	5
	5	1	1	1	4	4	1	5	5
9	1	4	2	5	1	4	2	3	4
	2	5	2	5	1	4	2	3	4
	3	7	2	5	1	4	2	3	4
	4	6	2	5	1	4	2	3	4
	5	7	2	5	1	4	2	3	4
10	1	5	2	3	3	4	5	5	4
	2	9	2	3	3	4	5	5	4
	3	7	2	3	3	4	5	5	4
	4	10	2	3	3	4	5	5	4
	5	4	2	3	3	4	5	5	4
11	1	0	0	0	0	0	0	0	0
5	5	5	5	5	27	66
